100 8
721 182
451 931
598 545
638 876
781 278
566 188
772 118
642 527
710 353
393 110
410 404
578 377
476 509
750 798
310 788
509 418
486 466
372 825
846 296
236 315
349 818
683 813
323 822
368 50
721 707
791 532
816 523
277 195
829 447
376 53
759 496
301 789
802 840
529 143
234 372
866 957
540 385
373 908
610 457
701 562
773 102
283 138
257 855
728 340
756 772
826 901
574 848
264 166
615 774
182 367
753 882
542 502
79 420
182 469
505 389
777 877
341 106
427 883
534 412
449 803
774 456
737 532
459 142
417 852
452 515
682 466
584 847
846 227
271 694
638 881
780 393
253 328
574 487
625 510
648 964
716 995
292 876
774 310
672 465
465 822
396 920
319 786
738 773
384 838
435 964
662 360
375 198
710 922
118 451
78 465
760 801
592 828
290 920
511 360
391 35
669 607
505 199
566 174
529 867
611 384
